(set-logic ALL)
(set-option :produce-models true)
(declare-sort BoundSet 0)
(declare-sort UnboundSet 0)
(set-option :finite-model-find true)
(declare-fun IsWorkingAt (BoundSet) Bool)
(declare-fun IsWearing (BoundSet BoundSet) Bool)
(assert (not (=> (exists ((a BoundSet)) (IsWorkingAt a)) (exists ((e BoundSet)) (exists ((c BoundSet)) (exists ((d BoundSet)) (and (IsWearing c d) (IsWorkingAt e))))))))
(check-sat)
(get-model)